p cnf 6 25
-3 -4 -6 0
4 -6 -2 6 0
-1 2 -5 0
-1 -1 5 2 -5 0
1 -1 -5 0
-6 1 4 0
-5 0
-5 0
6 -6 0
-1 2 0
-5 5 5 0
1 -3 2 0
-5 -6 -3 1 4 0
3 -2 -6 2 0
-3 -3 -1 0
-2 -6 1 0
-6 -6 -6 -5 0
5 6 -1 6 0
-3 -5 -1 0
4 -5 0
-3 2 -1 -6 -3 0
-1 0
-2 4 -3 -5 0
-6 0
-6 5 0